15	8	2
10 20 15 2 5 10 5 5 4 1 3 3 3 3 3
20 1 1 10 1000
20 2 2 20 2000
20 30 3 10 3000
20 2 4 20 2000
2 30 5 10 1000
15 5 6 20 3000
20 5 2 20 1000
1 1 1 20 5000
 0 2 3 2 3 1 3 3
 2 0 5 5 4 1 2 3
 3 5 0 1 2 6 3 2
 2 5 4 0 4 6 2 1
 3 4 2 4 0 8 1 2
 1 1 6 6 8 0 1 1
 3 2 3 2 1 1 0 4
 3 3 2 1 2 1 4 0
8  1 1 6 2 1 6 7 9 2 6 7 3 1 2 4 2 7 5 3 1 8 3 9 8 9 3 2 3 4 8 3 2 2 5 5 6 7 2 6 1 4 7
7  1 6 1 2 6 1 4 7 1 1 6 2 6 7 3 1 3 2 3 4 8 3 2 1 6 2 1 7 2 
6  1 6 1 3 2 3 4 8 3 2 3 3 2 7 1 4 4 2 4 2 7 5 2 1 7 3 7 2 4 4 3 1 
5  1 7 2 1 1 6 2 1 6 7 9 2 6 7 3 1 2 4 5 5 7 
7  1 7 2 2 1 6 7 9 2 4 4 3 1 3 1 8 3 9 8 9 2 1 7 3 7 3 2 3 4 8 3 2 2 4 5 5 7 
9  1 6 2 2 4 4 3 1 3 3 2 7 1 4 4 2 6 1 4 7 2 4 5 5 7 3 1 8 3 9 8 9 2 1 7 3 7 1 6 1 2 1 6 7 9 
5  2 5 5 6 7 2 1 7 3 7 2 6 1 4 7 1 6 2 2 6 7 3 1  
6  2 4 5 5 7 2 5 5 6 7 3 2 3 4 8 3 2 1 6 2 1 6 1 2 1 6 7 9 
9  1 1 6 2 1 6 7 9 2 4 4 3 1 3 1 8 3 9 8 9 2 4 2 7 5 2 6 1 4 7 1 7 2 2 1 7 3 7 3 2 3 4 8 3 2
5  2 5 5 6 7 1 1 6 1 7 2 2 4 5 5 7 2 1 6 7 9  
4  3 1 8 3 9 8 9 1 1 6 3 2 3 4 8 3 2 2 4 2 7 5  
6  2 4 2 7 5 1 6 1 1 1 6 2 1 7 3 7 3 1 8 3 9 8 9 1 7 2 
4  1 6 2 2 6 7 3 1 2 6 1 4 7 2 5 5 6 7 
3  2 5 5 6 7 1 6 1 2 4 2 7 5  
6  2 4 5 5 7 1 7 2 3 1 8 3 9 8 9 3 2 3 4 8 3 2 3 3 2 7 1 4 4 1 1 6 
